smt/unsat_v2_c3.smt2
(set-logic QF_NRA)
(declare-const X_0 Real)
(declare-const X_1 Real)
(declare-const H_0_0 Real)
(declare-const H_0_1 Real)
(declare-const H_0_2 Real)
(declare-const H_0_3 Real)
(declare-const H_0_4 Real)
(declare-const H_0_5 Real)
(declare-const H_0_6 Real)
(assert (= H_0_0 (ite (>= (+ (* X_0 -1.0) (* X_1 0.0) 1.0) 0) (+ (* X_0 -1.0) (* X_1 0.0) 1.0) 0)))
(assert (= H_0_1 (ite (>= (+ (* X_0 1.0) (* X_1 -1.0) 0.0) 0) (+ (* X_0 1.0) (* X_1 -1.0) 0.0) 0)))
(assert (= H_0_2 (ite (>= (+ (* X_0 1.0) (* X_1 1.0) -1.0) 0) (+ (* X_0 1.0) (* X_1 1.0) -1.0) 0)))
(assert (= H_0_3 (ite (>= (+ (* X_0 1.0) (* X_1 0.0) 0.0) 0) (+ (* X_0 1.0) (* X_1 0.0) 0.0) 0)))
(assert (= H_0_4 (ite (>= (+ (* X_0 0.0) (* X_1 1.0) 0.0) 0) (+ (* X_0 0.0) (* X_1 1.0) 0.0) 0)))
(assert (= H_0_5 (ite (>= (+ (* X_0 2.0) (* X_1 0.0) -1.0) 0) (+ (* X_0 2.0) (* X_1 0.0) -1.0) 0)))
(assert (= H_0_6 (ite (>= (+ (* X_0 0.0) (* X_1 2.0) -1.0) 0) (+ (* X_0 0.0) (* X_1 2.0) -1.0) 0)))
(declare-const H_2_0 Real)
(declare-const H_2_1 Real)
(assert (= H_2_0 (+ (* H_0_0 -1.0) (* H_0_1 -1.0) (* H_0_2 -1.0) (* H_0_3 0.0) (* H_0_4 0.0) (* H_0_5 0.0) (* H_0_6 0.0) 1.0)))
(assert (= H_2_1 (+ (* H_0_0 0.0) (* H_0_1 0.0) (* H_0_2 0.0) (* H_0_3 1.0) (* H_0_4 1.0) (* H_0_5 -1.0) (* H_0_6 -1.0) 0.0)))
(declare-const Y_0 Real)
(assert (= Y_0 H_2_0))
(declare-const Y_1 Real)
(assert (= Y_1 H_2_1))
(assert (<= X_0 1.0))
(assert (>= X_0 0.0))
(assert (<= X_1 1.0))
(assert (>= X_1 0.0))
(assert (>= Y_0 1.0))
(assert (<= Y_1 0.0))
(check-sat)
(get-model)